# Solution for model problem
# Objective value = 8.2502000000000009e-04
CLIENT_PE2_0 0
CLIENT_PE3_0 0
CLIENT_PE4_0 0
CLIENT_PE6_0 0
CLIENT_PE13_0 1
CLIENT_PE2_2 0
CLIENT_PE3_2 0
CLIENT_PE4_2 0
CLIENT_PE6_2 0
CLIENT_PE13_2 1
CLIENT_PE0_1 0
CLIENT_PE2_1 0
CLIENT_PE3_1 0
CLIENT_PE4_1 0
CLIENT_PE6_1 0
CLIENT_PE7_1 0
CLIENT_PE13_1 1
CLIENT_PE14_1 0
CLIENT_PE0_4 0
CLIENT_PE2_4 0
CLIENT_PE3_4 0
CLIENT_PE4_4 0
CLIENT_PE6_4 0
CLIENT_PE7_4 0
CLIENT_PE13_4 1
CLIENT_PE14_4 0
CLIENT_PE0_6 0
CLIENT_PE1_6 0
CLIENT_PE2_6 0
CLIENT_PE3_6 0
CLIENT_PE4_6 0
CLIENT_PE5_6 0
CLIENT_PE6_6 0
CLIENT_PE7_6 0
CLIENT_PE8_6 0
CLIENT_PE9_6 0
CLIENT_PE10_6 0
CLIENT_PE11_6 0
CLIENT_PE12_6 0
CLIENT_PE13_6 0
CLIENT_PE14_6 0
CLIENT_PE15_6 1
CLIENT_PE16_6 0
src_0 1
src_1 0
src_2 0
src_3 0
src_4 0
fft_0 1
fft_1 0
fft_2 0
fft_3 0
fft_4 0
matrix_0 1
matrix_1 0
matrix_2 0
matrix_3 0
matrix_4 0
ifft_0 1
ifft_1 0
ifft_2 0
ifft_3 0
ifft_4 0
road_0 1
road_1 0
road_2 0
road_3 0
road_4 0
fir_0 1
fir_1 0
fir_2 0
fir_3 0
fir_4 0
table_0 1
table_1 0
table_2 0
table_3 0
table_4 0
angle_0 1
angle_1 0
angle_2 0
angle_3 0
angle_4 0
sink_0 1
sink_1 0
sink_2 0
sink_3 0
sink_4 0
